NAME : XML100_3263_25
DIMENSION : 101
NB_CLUSTERS : 3
CLUSTERING_ALG : KMeans
CLUSTERING_PARAMS : k(2)
CLUSTERS
1 0
2 1 2 4 5 6 7 8 10 11 14 15 18 19 24 25 26 28 35 37 41 42 43 44 48 50 51 59 60 66 68 70 72 73 74 75 78 79 81 82 86 87 89 91 92 94 95 96 97 100
3 3 9 12 13 16 17 20 21 22 23 27 29 30 31 32 33 34 36 38 39 40 45 46 47 49 52 53 54 55 56 57 58 61 62 63 64 65 67 69 71 76 77 80 83 84 85 88 90 93 98 99
EOF